c SaDiCaL SAT Solver
c Copyright (C) 2018 by Armin Biere JKU
c
c Version 00n 481e664a7ffa9a307d3a0dad517daf5dde1989ef
c Compiler Apple clang version 15.0.0 (clang-1500.3.9.4)
c Options gcc -Wall -O3 -DNDEBUG -DNLOG
c proof path 'tests/seven1.prf'
c
c all options have default values
c
c parsing 'tests/seven1.cnf'
c found 'p cnf 3 7' header
c parsed DIMACS in 0.00 seconds
c 
c
c   time      reduced redundant irredundant
c       space  restarts glue   variables
c           level conflicts size remaining
c
c s 0.00 0.0 0.0 0 0 4 0 1.0 1.0 3 2 67%
c 1 0.00 0.0 0.0 0 0 5 0 1.0 1.0 3 0 0%
c
s SATISFIABLE
v -1 -2 -3 0
c
c simplifications:             1           5  conflicts/simplification  100%
c reductions:                  0           0  conflicts/reduction       100%
c restarts:                    0           0  conflicts/restart         100%
c conflicts:                   5        3631  conflicts/sec             100%
c decisions:                   2        1452  decisions/sec             100%
c propagations:                8         0.0  millions/sec               89%
c
c pure:                        0           0% of look-aheads
c look-ahead:                  2         100% of outer decisions        100%
c pruned:                      1          20% of outer conflicts         20%
c generated reducts:           1         100% satisfiable
c average size:                0           0% of all clauses
c pruning failed:              0           0% per reduct
c filter checks:               3         100% of outer satisfied clauses
c average filtered:          3.0         100% per reduct
c assumed literals:            6         2.0  per filter check
c
c collected clauses:        0.00 MB       62% of allocated clauses      100%
c allocated clauses:        0.00 MB        9% of allocated memory       100%
c maximum heap:             0.00 MB        0% of resident set size       59%
c
c looking:                  0.00 sec       0% of process time
c filtering:                0.00 sec       0% of process time
c pruning:                  0.00 sec       0% of process time
c simplifying:              0.00 sec       0% of process time
c
c resident set size:     1008.00 MB
c total process time:       0.00 sec
